15 40
25
7 12 8 12
7 7 3 33
1 7 6 0
1 5 6 7
2 3 0 6
2 6 0 0
2 7 13 24
2 5 13 31
1 3 9 24
1 6 9 27
6 12 9 0
6 9 3 24
2 12 7 0
2 7 6 12
3 10 3 5
1 4 2 5
1 5 2 0
3 16 10 24
3 5 3 0
2 4 13 36
2 5 6 19
3 10 0 9
3 9 3 15
3 16 0 24
3 5 0 19
